cases/pglib-opf/pglib_opf_case200_tamu.m
ipopt
ACR
[warn | PowerModels]: no active generators found at bus 168, updating to bus type from 2 to 1
[warn | PowerModels]: no active generators found at bus 197, updating to bus type from 2 to 1
[warn | PowerModels]: no active generators found at bus 92, updating to bus type from 2 to 1
[warn | PowerModels]: no active generators found at bus 161, updating to bus type from 2 to 1
[warn | PowerModels]: no active generators found at bus 165, updating to bus type from 2 to 1
[warn | PowerModels]: no active generators found at bus 196, updating to bus type from 2 to 1
[warn | PowerModels]: no active generators found at bus 164, updating to bus type from 2 to 1
[warn | PowerModels]: no active generators found at bus 78, updating to bus type from 2 to 1
[warn | PowerModels]: no active generators found at bus 166, updating to bus type from 2 to 1
[warn | PowerModels]: no active generators found at bus 169, updating to bus type from 2 to 1
[warn | PowerModels]: no active generators found at bus 79, updating to bus type from 2 to 1
[info | PowerModels]: removing 3 cost terms from generator 24: Float64[]
[info | PowerModels]: removing 3 cost terms from generator 25: Float64[]
[info | PowerModels]: removing 3 cost terms from generator 23: Float64[]
[info | PowerModels]: removing 3 cost terms from generator 31: Float64[]
[info | PowerModels]: removing 1 cost terms from generator 47: [671.0, 1272.13]
[info | PowerModels]: removing 3 cost terms from generator 6: Float64[]
[info | PowerModels]: removing 3 cost terms from generator 22: Float64[]

******************************************************************************
This program contains Ipopt, a library for large-scale nonlinear optimization.
 Ipopt is released as open source code under the Eclipse Public License (EPL).
         For more information visit http://projects.coin-or.org/Ipopt
******************************************************************************

This is Ipopt version 3.13.2, running with linear solver mumps.
NOTE: Other linear solvers might be more efficient (see Ipopt documentation).

Number of nonzeros in equality constraint Jacobian...:    11839
Number of nonzeros in inequality constraint Jacobian.:     5700
Number of nonzeros in Lagrangian Hessian.............:     9659

Total number of variables............................:     1450
                     variables with only lower bounds:        0
                variables with lower and upper bounds:     1450
                     variables with only upper bounds:        0
Total number of equality constraints.................:     1381
Total number of inequality constraints...............:     1380
        inequality constraints with only lower bounds:      445
   inequality constraints with lower and upper bounds:        0
        inequality constraints with only upper bounds:      935

iter    objective    inf_pr   inf_du lg(mu)  ||d||  lg(rg) alpha_du alpha_pr  ls
   0  2.6329020e+04 1.72e+00 1.23e+01  -1.0 0.00e+00    -  0.00e+00 0.00e+00   0
   1  2.6540846e+04 1.61e+00 1.19e+01  -1.0 2.19e+00    -  4.47e-02 6.55e-02h  1
   2  2.6586687e+04 1.44e+00 1.79e+01  -1.0 3.93e+00    -  6.38e-01 1.06e-01h  1
   3  2.7650435e+04 3.48e-02 1.75e+01  -1.0 3.68e+00    -  1.49e-01 9.80e-01H  1
   4  2.7596999e+04 1.67e-02 1.74e+01  -1.0 4.02e+00    -  1.00e+00 5.21e-01h  1
   5  2.7642262e+04 1.42e-03 7.87e-01  -1.0 1.45e+00    -  1.00e+00 1.00e+00f  1
   6  2.7587955e+04 7.96e-05 2.71e-02  -1.7 3.36e-01    -  1.00e+00 1.00e+00f  1
   7  2.7570085e+04 1.02e-03 5.85e-01  -3.8 1.01e-01    -  8.39e-01 1.00e+00f  1
   8  2.7564220e+04 3.94e-03 1.48e-01  -3.8 7.62e-02    -  7.45e-01 1.00e+00h  1
   9  2.7557780e+04 6.38e-03 5.09e-02  -3.8 1.53e-01    -  8.97e-01 1.00e+00h  1
iter    objective    inf_pr   inf_du lg(mu)  ||d||  lg(rg) alpha_du alpha_pr  ls
  10  2.7557475e+04 4.97e-03 5.77e-02  -3.8 4.74e-02    -  1.00e+00 2.26e-01h  1
  11  2.7557805e+04 1.23e-04 5.76e-04  -3.8 8.59e-02    -  1.00e+00 1.00e+00h  1
  12  2.7557766e+04 1.73e-06 1.72e-05  -3.8 3.66e-03    -  1.00e+00 1.00e+00h  1
  13  2.7557630e+04 2.90e-05 2.38e-01  -5.7 5.73e-02    -  8.96e-01 6.21e-01h  1
  14  2.7557577e+04 1.91e-05 6.01e-02  -5.7 2.75e-02    -  9.16e-01 8.11e-01h  1
  15  2.7557572e+04 1.58e-06 7.60e-06  -5.7 4.53e-03    -  1.00e+00 1.00e+00h  1
  16  2.7557572e+04 1.98e-07 8.13e-07  -5.7 7.54e-04    -  1.00e+00 1.00e+00h  1
  17  2.7557570e+04 2.05e-07 4.99e-04  -8.6 7.63e-04    -  9.41e-01 9.80e-01h  1
  18  2.7557570e+04 6.27e-08 2.58e-07  -8.6 4.24e-04    -  1.00e+00 1.00e+00h  1
  19  2.7557570e+04 1.62e-08 6.67e-08  -8.6 2.15e-04    -  1.00e+00 1.00e+00h  1
iter    objective    inf_pr   inf_du lg(mu)  ||d||  lg(rg) alpha_du alpha_pr  ls
  20  2.7557570e+04 3.31e-09 1.36e-08  -8.6 9.73e-05    -  1.00e+00 1.00e+00h  1
  21  2.7557570e+04 5.87e-10 2.42e-09  -9.0 4.10e-05    -  1.00e+00 1.00e+00h  1

Number of Iterations....: 21

                                   (scaled)                 (unscaled)
Objective...............:   1.1881335891311792e+03    2.7557570466308574e+04
Dual infeasibility......:   2.4203296173045956e-09    5.6137125143762798e-08
Constraint violation....:   5.8710459584221386e-10    5.8710459584221386e-10
Complementarity.........:   2.2149276109815811e-09    5.1373031009106795e-08
Overall NLP error.......:   2.4203296173045956e-09    5.6137125143762798e-08


Number of objective function evaluations             = 23
Number of objective gradient evaluations             = 22
Number of equality constraint evaluations            = 23
Number of inequality constraint evaluations          = 23
Number of equality constraint Jacobian evaluations   = 22
Number of inequality constraint Jacobian evaluations = 22
Number of Lagrangian Hessian evaluations             = 21
Total CPU secs in IPOPT (w/o function evaluations)   =      0.628
Total CPU secs in NLP function evaluations           =      0.216

EXIT: Optimal Solution Found.
Time to Solution........:1.5481879711151123
